
Gurobi 8.1.1 (win64, Python) logging started 10/23/19 10:27:45

Academic license - for non-commercial use only

Gurobi 8.1.1 (win64, Python) logging started 10/23/19 10:29:35

Academic license - for non-commercial use only

Gurobi 8.1.1 (win64, Python) logging started 10/23/19 11:54:35

Academic license - for non-commercial use only

Gurobi 8.1.1 (win64, Python) logging started 10/23/19 11:56:18

Academic license - for non-commercial use only

Gurobi 8.1.1 (win64, Python) logging started 10/23/19 12:08:20

Academic license - for non-commercial use only

Gurobi 8.1.1 (win64, Python) logging started 10/23/19 12:10:19

Academic license - for non-commercial use only

Gurobi 8.1.1 (win64, Python) logging started 10/23/19 12:20:56

Academic license - for non-commercial use only

Gurobi 8.1.1 (win64, Python) logging started 10/23/19 12:34:20

Academic license - for non-commercial use only

Gurobi 8.1.1 (win64, Python) logging started 10/23/19 12:35:51

Academic license - for non-commercial use only

Gurobi 8.1.1 (win64, Python) logging started 10/23/19 12:38:42

Academic license - for non-commercial use only

Gurobi 8.1.1 (win64, Python) logging started 10/23/19 12:44:56

Academic license - for non-commercial use only

Gurobi 8.1.1 (win64, Python) logging started 10/23/19 13:07:52

Academic license - for non-commercial use only

Gurobi 8.1.1 (win64, Python) logging started 10/24/19 09:30:59

Academic license - for non-commercial use only

Gurobi 8.1.1 (win64, Python) logging started 10/24/19 10:07:45

Academic license - for non-commercial use only

Gurobi 8.1.1 (win64, Python) logging started 10/24/19 10:12:15

Academic license - for non-commercial use only

Gurobi 8.1.1 (win64, Python) logging started 10/24/19 11:02:26

Academic license - for non-commercial use only

Gurobi 8.1.1 (win64, Python) logging started 10/25/19 11:18:56

Academic license - for non-commercial use only

Gurobi 8.1.1 (win64, Python) logging started 10/25/19 11:23:50

Academic license - for non-commercial use only

Gurobi 8.1.1 (win64, Python) logging started 10/25/19 11:24:45

Academic license - for non-commercial use only

Gurobi 8.1.1 (win64, Python) logging started 10/25/19 11:26:37

Academic license - for non-commercial use only

Gurobi 8.1.1 (win64, Python) logging started 10/25/19 11:38:14

Academic license - for non-commercial use only

Gurobi 8.1.1 (win64, Python) logging started 10/25/19 11:40:02

Academic license - for non-commercial use only

Gurobi 8.1.1 (win64, Python) logging started 10/25/19 11:42:26

Academic license - for non-commercial use only

Gurobi 8.1.1 (win64, Python) logging started 10/25/19 11:44:44

Academic license - for non-commercial use only

Gurobi 8.1.1 (win64, Python) logging started 10/25/19 11:45:11

Academic license - for non-commercial use only

Gurobi 8.1.1 (win64, Python) logging started 10/25/19 11:47:39

Academic license - for non-commercial use only

Gurobi 8.1.1 (win64, Python) logging started 10/25/19 11:50:00

Academic license - for non-commercial use only

Gurobi 8.1.1 (win64, Python) logging started 10/25/19 11:50:29

Academic license - for non-commercial use only

Gurobi 8.1.1 (win64, Python) logging started 10/25/19 11:50:59

Academic license - for non-commercial use only

Gurobi 8.1.1 (win64, Python) logging started 10/25/19 11:51:24

Academic license - for non-commercial use only

Gurobi 8.1.1 (win64, Python) logging started 10/25/19 11:54:31

Academic license - for non-commercial use only

Gurobi 8.1.1 (win64, Python) logging started 10/25/19 11:57:05

Academic license - for non-commercial use only

Gurobi 8.1.1 (win64, Python) logging started 10/25/19 12:00:52

Academic license - for non-commercial use only

Gurobi 8.1.1 (win64, Python) logging started 10/25/19 12:04:20

Academic license - for non-commercial use only

Gurobi 8.1.1 (win64, Python) logging started 10/25/19 12:05:15

Academic license - for non-commercial use only

Gurobi 8.1.1 (win64, Python) logging started 10/25/19 12:10:02

Academic license - for non-commercial use only

Gurobi 8.1.1 (win64, Python) logging started 10/25/19 12:12:59

Academic license - for non-commercial use only

Gurobi 8.1.1 (win64, Python) logging started 10/25/19 12:15:05

Academic license - for non-commercial use only

Gurobi 8.1.1 (win64, Python) logging started 10/25/19 12:15:50

Academic license - for non-commercial use only

Gurobi 8.1.1 (win64, Python) logging started 10/25/19 12:17:33

Academic license - for non-commercial use only

Gurobi 8.1.1 (win64, Python) logging started 10/25/19 12:18:56

Academic license - for non-commercial use only

Gurobi 8.1.1 (win64, Python) logging started 10/25/19 12:20:28

Academic license - for non-commercial use only

Gurobi 8.1.1 (win64, Python) logging started 10/25/19 12:33:39

Academic license - for non-commercial use only

Gurobi 8.1.1 (win64, Python) logging started 10/25/19 12:36:23

Academic license - for non-commercial use only

Gurobi 8.1.1 (win64, Python) logging started 10/25/19 12:40:46

Academic license - for non-commercial use only

Gurobi 8.1.1 (win64, Python) logging started 10/25/19 12:42:33

Academic license - for non-commercial use only

Gurobi 8.1.1 (win64, Python) logging started 10/25/19 12:43:56

Academic license - for non-commercial use only

Gurobi 8.1.1 (win64, Python) logging started 10/25/19 13:00:03

Academic license - for non-commercial use only

Gurobi 8.1.1 (win64, Python) logging started 10/25/19 15:17:17

Academic license - for non-commercial use only

Gurobi 8.1.1 (win64, Python) logging started 10/25/19 15:21:07

Academic license - for non-commercial use only

Gurobi 8.1.1 (win64, Python) logging started 10/25/19 15:40:08

Academic license - for non-commercial use only

Gurobi 8.1.1 (win64, Python) logging started 10/25/19 15:47:03

Academic license - for non-commercial use only

Gurobi 8.1.1 (win64, Python) logging started 10/25/19 15:52:21

Academic license - for non-commercial use only

Gurobi 8.1.1 (win64, Python) logging started 10/25/19 15:58:05

Academic license - for non-commercial use only

Gurobi 8.1.1 (win64, Python) logging started 10/25/19 16:07:10

Academic license - for non-commercial use only

Gurobi 8.1.1 (win64, Python) logging started 10/25/19 16:07:57

Academic license - for non-commercial use only

Gurobi 8.1.1 (win64, Python) logging started 10/25/19 16:08:51

Academic license - for non-commercial use only

Gurobi 8.1.1 (win64, Python) logging started 10/25/19 16:18:07

Academic license - for non-commercial use only

Gurobi 8.1.1 (win64, Python) logging started 10/25/19 16:20:06

Academic license - for non-commercial use only

Gurobi 8.1.1 (win64, Python) logging started 10/25/19 16:22:29

Academic license - for non-commercial use only

Gurobi 8.1.1 (win64, Python) logging started 10/28/19 09:15:09

Academic license - for non-commercial use only

Gurobi 8.1.1 (win64, Python) logging started 10/28/19 09:21:45

Academic license - for non-commercial use only

Gurobi 8.1.1 (win64, Python) logging started 10/28/19 09:28:06

Academic license - for non-commercial use only

Gurobi 8.1.1 (win64, Python) logging started 10/28/19 09:28:26

Academic license - for non-commercial use only

Gurobi 8.1.1 (win64, Python) logging started 10/28/19 09:33:57

Academic license - for non-commercial use only

Gurobi 8.1.1 (win64, Python) logging started 10/28/19 09:34:53

Academic license - for non-commercial use only

Gurobi 8.1.1 (win64, Python) logging started 10/28/19 09:35:33

Academic license - for non-commercial use only

Gurobi 8.1.1 (win64, Python) logging started 10/28/19 10:03:28

Academic license - for non-commercial use only

Gurobi 8.1.1 (win64, Python) logging started 10/28/19 10:05:14

Academic license - for non-commercial use only

Gurobi 8.1.1 (win64, Python) logging started 10/28/19 10:29:59

Academic license - for non-commercial use only

Gurobi 8.1.1 (win64, Python) logging started 10/28/19 11:25:22

Academic license - for non-commercial use only

Gurobi 8.1.1 (win64, Python) logging started 10/28/19 11:26:49

Academic license - for non-commercial use only

Gurobi 8.1.1 (win64, Python) logging started 10/28/19 11:28:18

Academic license - for non-commercial use only

Gurobi 8.1.1 (win64, Python) logging started 10/28/19 11:30:16

Academic license - for non-commercial use only

Gurobi 8.1.1 (win64, Python) logging started 10/28/19 15:09:16

Academic license - for non-commercial use only

Gurobi 8.1.1 (win64, Python) logging started 10/28/19 15:12:52

Academic license - for non-commercial use only

Gurobi 8.1.1 (win64, Python) logging started 10/28/19 15:26:14

Academic license - for non-commercial use only

Gurobi 8.1.1 (win64, Python) logging started 10/28/19 15:41:42

Academic license - for non-commercial use only

Gurobi 8.1.1 (win64, Python) logging started 10/28/19 15:50:05

Academic license - for non-commercial use only

Gurobi 8.1.1 (win64, Python) logging started 10/28/19 15:58:22

Academic license - for non-commercial use only

Gurobi 8.1.1 (win64, Python) logging started 10/28/19 16:08:45

Academic license - for non-commercial use only

Gurobi 8.1.1 (win64, Python) logging started 10/28/19 16:25:48

Academic license - for non-commercial use only

Gurobi 8.1.1 (win64, Python) logging started 10/28/19 16:29:35

Academic license - for non-commercial use only

Gurobi 8.1.1 (win64, Python) logging started 10/28/19 16:46:33

Academic license - for non-commercial use only

Gurobi 8.1.1 (win64, Python) logging started 10/28/19 17:03:44

Academic license - for non-commercial use only

Gurobi 8.1.1 (win64, Python) logging started 10/29/19 09:12:39

Academic license - for non-commercial use only

Gurobi 8.1.1 (win64, Python) logging started 10/29/19 10:18:55

Academic license - for non-commercial use only

Gurobi 8.1.1 (win64, Python) logging started 10/29/19 10:28:10

Academic license - for non-commercial use only

Gurobi 8.1.1 (win64, Python) logging started 10/29/19 10:37:33

Academic license - for non-commercial use only

Gurobi 8.1.1 (win64, Python) logging started 10/29/19 10:47:14

Academic license - for non-commercial use only

Gurobi 8.1.1 (win64, Python) logging started 10/29/19 10:53:40

Academic license - for non-commercial use only

Gurobi 8.1.1 (win64, Python) logging started 10/29/19 11:01:19

Academic license - for non-commercial use only

Gurobi 8.1.1 (win64, Python) logging started 10/29/19 11:07:12

Academic license - for non-commercial use only

Gurobi 8.1.1 (win64, Python) logging started 10/29/19 11:46:53

Academic license - for non-commercial use only

Gurobi 8.1.1 (win64, Python) logging started 10/29/19 11:52:05

Academic license - for non-commercial use only

Gurobi 8.1.1 (win64, Python) logging started 10/29/19 12:09:09

Academic license - for non-commercial use only
